#LAMMPS input for enthalpy calculation of solid
#define some varibles
variable	T1 equal 10
variable	T2 equal 80
variable	P equal 1
variable	dt equal 0.001
variable	lp equal 5.34
#some parameters
dimension    	3
units       	metal
boundary     	p p p
atom_style	atomic
timestep     	${dt}
dump            d1 all atom 5000 config.dump
#initial position for periodic solid
variable	ll equal 6*${lp}
lattice         fcc ${lp} origin 0.01 0.01 0.01 orient x 1 0 0 orient y 0 1 0 orient z 0 0 1
region          SOL block -${ll} ${ll} -${ll} ${ll} -${ll} 0 units box
create_box	1 SOL
create_atoms	1 region SOL
#define the potential and mass
mass      	1 39.948
pair_style   	lj/smooth 7.5 8.5
pair_coeff   	1 1 0.01042 3.4
#initial velocity
velocity     	all create ${T1} 12345 mom yes rot yes dist gaussian
#output format in log file
thermo_style    custom step temp press vol ke pe etotal
thermo		2000
#writing thermodynamic data to a file solid.dat
variable        vtm equal temp
variable        vpr equal press
variable	vvl equal vol
variable	vte equal etotal 
variable	ven equal enthalpy
fix             fT all ave/time 1 1000 10000 v_vtm v_vpr v_vvl v_vte v_ven file solid.dat
#specify NPT run
fix             fNPT all npt temp ${T1} ${T2} 0.1 x ${P} ${P} 1.0 y ${P} ${P} 1.0 z ${P} ${P} 1.0
run          	500000
unfix		fNPT
