#LAMMPS input for NPT simulation 
#define some varibles
variable	dt equal 0.001
variable	lp equal 5.34
variable    	T equal 35
variable	P equal 0
#some parameters and instructions
dimension    	3
units       	metal
boundary     	p p p
atom_style	atomic
timestep     	${dt}
dump            d1 all atom 5000 config.dump
#initial position
lattice      	fcc ${lp} orient x 1 0 0 orient y 0 1 0 orient z 0 0 1
region       	mybox block 0 5 0 5 0 5
create_box   	1 mybox
create_atoms 	1 region mybox
#define the potential and mass
mass      	1 39.948 
pair_style   	lj/smooth 7.5 8.5
pair_coeff   	1 1 0.01042 3.4
#perform energy and force minimization
minimize 1e-20 1e-20 10000 10000 
#initial velocity
velocity     	all create $T 12345 mom yes rot yes dist gaussian
#specify NPT run
fix             fNPT all npt temp $T $T 0.1 iso $P $P 1.0 
#output format in log file
thermo_style    custom step temp press vol ke pe etotal
thermo		20
#writing thermodynamic data to a file npt.dat
variable        vtm equal temp
variable        vpr equal press
variable	vvl equal vol
variable	vke equal ke
variable	vpe equal pe
variable	vet equal etotal
fix             fT all ave/time 5 100 500 v_vtm v_vpr v_vvl v_vke v_vpe v_vet file npt.dat
#run simulation
run          	50000
#simulation over for initial temperature
unfix		fNPT
#increase temperature
variable	2T equal 2*$T
fix             fNPT all npt temp ${2T} ${2T} 0.1 iso $P $P 1.0
run             50000
unfix           fNPT
#increase temperature
variable        3T equal 3*$T
fix             fNPT all npt temp ${3T} ${3T} 0.1 iso $P $P 1.0
run             50000
unfix           fNPT
undump		d1
