&CONTROL
calculation = 'scf',
prefix = 'silicon',
pseudo_dir = './'
/

&SYSTEM
ibrav =  2,
celldm(1) = 10.2076,
nat =  2,
ntyp = 1,
ecutwfc = 50,
ecutrho = 400,
nbnd = 8,
!  occupations = 'smearing',
!  smearing = 'gaussian',
!  degauss = 0.005
/

&ELECTRONS
/

ATOMIC_SPECIES
Si 28.086 Si.pbe-n-kjpaw_psl.1.0.0.UPF 

ATOMIC_POSITIONS (crystal)
Si 0.0 0.0 0.0
Si 0.25 0.25 0.25

K_POINTS (automatic)
8 8 8 0 0 0
